
Gurobi 9.0.1 (linux64) logging started Thu Apr 30 21:16:12 2020

Gurobi Optimizer version 9.0.1 build v9.0.1rc0 (linux64)
Optimize a model with 32222 rows, 27380 columns and 603960 nonzeros
Model fingerprint: 0xfd81b726
Variable types: 0 continuous, 27380 integer (27342 binary)
Coefficient statistics:
  Matrix range     [1e+00, 2e+01]
  Objective range  [5e+00, 1e+02]
  Bounds range     [1e+00, 1e+00]
  RHS range        [1e+00, 1e+00]

User MIP start produced solution with objective 1167 (0.89s)
Loaded user MIP start with objective 1167

Presolve removed 14186 rows and 9388 columns (presolve time = 5s) ...
Presolve removed 14228 rows and 9448 columns (presolve time = 10s) ...
Presolve removed 14228 rows and 9448 columns
Presolve time: 10.37s
Presolved: 17994 rows, 17932 columns, 501040 nonzeros
Variable types: 0 continuous, 17932 integer (17896 binary)

Root simplex log...

Iteration    Objective       Primal Inf.    Dual Inf.      Time
       0    0.0000000e+00   1.940000e+02   0.000000e+00     13s
    2009    5.4466675e+02   1.619123e+04   0.000000e+00     15s
    3918    5.5300009e+02   2.641406e+03   0.000000e+00     20s
    5329    5.6079812e+02   7.967409e+03   0.000000e+00     25s
    6491    5.6571916e+02   3.846821e+03   0.000000e+00     30s
    7570    5.6945806e+02   3.554148e+03   0.000000e+00     35s
    8483    5.7313032e+02   1.938236e+03   0.000000e+00     40s
    9313    5.7390990e+02   7.409500e+03   0.000000e+00     45s
   10226    5.7464110e+02   4.936323e+03   0.000000e+00     50s
   11056    5.7591016e+02   1.202998e+03   0.000000e+00     55s
   11886    5.7773753e+02   4.694500e+04   0.000000e+00     60s
   12716    5.7866981e+02   2.115725e+03   0.000000e+00     65s
   13546    5.7943311e+02   1.293422e+04   0.000000e+00     70s
   14293    5.8013813e+02   1.520926e+03   0.000000e+00     75s
   15206    5.8116313e+02   1.316316e+05   0.000000e+00     80s
   15953    5.8174969e+02   1.574918e+03   0.000000e+00     85s
   16700    5.8244487e+02   2.668480e+03   0.000000e+00     91s
   17364    5.8318795e+02   2.349092e+03   0.000000e+00     95s
   18111    5.8364749e+02   4.808143e+03   0.000000e+00    100s
   18692    5.8406712e+02   1.831713e+03   0.000000e+00    105s
   19439    5.8439036e+02   7.626423e+02   0.000000e+00    110s
   20020    5.8485317e+02   1.031969e+03   0.000000e+00    115s
Warning: Markowitz tolerance tightened to 0.03125
   20598    5.8553566e+02   3.362018e+03   0.000000e+00    120s
   21345    5.8630633e+02   1.134950e+03   0.000000e+00    126s
   21843    5.8672033e+02   2.850342e+03   0.000000e+00    130s
   22504    5.8734524e+02   5.402271e+02   0.000000e+00    135s
   23165    5.8765791e+02   3.603421e+02   0.000000e+00    141s
   23829    5.8801666e+02   1.004357e+03   0.000000e+00    145s
   24410    5.8824292e+02   1.539366e+02   0.000000e+00    150s
   24982    5.8850078e+02   9.199057e+02   0.000000e+00    155s
   25643    5.8889771e+02   2.586674e+03   0.000000e+00    161s
   26122    5.8908396e+02   5.657972e+02   0.000000e+00    165s
   26748    5.8917675e+02   0.000000e+00   0.000000e+00    171s

Root relaxation: objective 5.891766e+02, 26748 iterations, 159.31 seconds

    Nodes    |    Current Node    |     Objective Bounds      |     Work
 Expl Unexpl |  Obj  Depth IntInf | Incumbent    BestBd   Gap | It/Node Time

     0     0  589.17664    0 2653 1167.00000  589.17664  49.5%     -  181s
     0     0  614.43594    0 2687 1167.00000  614.43594  47.3%     -  296s
     0     0  615.59958    0 2678 1167.00000  615.59958  47.2%     -  319s
     0     0  615.78502    0 2669 1167.00000  615.78502  47.2%     -  328s
     0     0  615.79757    0 2687 1167.00000  615.79757  47.2%     -  331s
     0     0  615.80192    0 2687 1167.00000  615.80192  47.2%     -  334s
     0     0  615.80243    0 2684 1167.00000  615.80243  47.2%     -  336s
     0     0  621.59964    0 2712 1167.00000  621.59964  46.7%     -  421s
     0     0  622.18331    0 2716 1167.00000  622.18331  46.7%     -  448s
     0     0  622.24186    0 2709 1167.00000  622.24186  46.7%     -  455s
     0     0  622.25081    0 2711 1167.00000  622.25081  46.7%     -  458s
     0     0  622.25156    0 2710 1167.00000  622.25156  46.7%     -  460s
     0     0  627.74923    0 2724 1167.00000  627.74923  46.2%     -  582s
     0     0  628.15216    0 2753 1167.00000  628.15216  46.2%     -  608s
     0     0  628.28552    0 2732 1167.00000  628.28552  46.2%     -  618s
     0     0  628.30338    0 2741 1167.00000  628.30338  46.2%     -  623s
     0     0  628.30569    0 2740 1167.00000  628.30569  46.2%     -  626s
     0     0  633.78210    0 2767 1167.00000  633.78210  45.7%     -  765s
     0     0  634.19563    0 2786 1167.00000  634.19563  45.7%     -  797s
     0     0  634.26713    0 2791 1167.00000  634.26713  45.6%     -  805s
     0     0  634.28136    0 2781 1167.00000  634.28136  45.6%     -  809s
     0     0  634.29140    0 2783 1167.00000  634.29140  45.6%     -  812s
     0     0  634.29708    0 2782 1167.00000  634.29708  45.6%     -  815s
     0     0  636.81233    0 2785 1167.00000  636.81233  45.4%     -  890s
     0     0  637.23662    0 2798 1167.00000  637.23662  45.4%     -  936s
     0     0  637.25557    0 2794 1167.00000  637.25557  45.4%     -  941s
     0     0  637.27500    0 2811 1167.00000  637.27500  45.4%     -  945s
     0     0  637.29120    0 2809 1167.00000  637.29120  45.4%     -  949s
     0     0  637.29703    0 2817 1167.00000  637.29703  45.4%     -  953s
     0     0  638.19460    0 2824 1167.00000  638.19460  45.3%     - 1003s
     0     0  638.39311    0 2832 1167.00000  638.39311  45.3%     - 1044s
     0     0  638.42670    0 2835 1167.00000  638.42670  45.3%     - 1051s
     0     0  638.43302    0 2844 1167.00000  638.43302  45.3%     - 1055s
     0     0  638.95110    0 2833 1167.00000  638.95110  45.2%     - 1088s
     0     0  639.02223    0 2828 1167.00000  639.02223  45.2%     - 1100s
     0     0  639.04515    0 2832 1167.00000  639.04515  45.2%     - 1106s
     0     0  639.05301    0 2828 1167.00000  639.05301  45.2%     - 1109s
     0     0  639.69849    0 2835 1167.00000  639.69849  45.2%     - 1153s
     0     0  639.80161    0 2835 1167.00000  639.80161  45.2%     - 1166s
     0     0  639.81589    0 2840 1167.00000  639.81589  45.2%     - 1170s
     0     0  639.81933    0 2845 1167.00000  639.81933  45.2%     - 1173s
     0     0  640.27120    0 2848 1167.00000  640.27120  45.1%     - 1204s
     0     0  640.33818    0 2853 1167.00000  640.33818  45.1%     - 1217s
     0     0  640.34917    0 2861 1167.00000  640.34917  45.1%     - 1221s
     0     0  641.00949    0 2830 1167.00000  641.00949  45.1%     - 1256s
     0     0  641.07214    0 2843 1167.00000  641.07214  45.1%     - 1315s
     0     0  641.08476    0 2849 1167.00000  641.08476  45.1%     - 1319s
     0     0  641.81181    0 2808 1167.00000  641.81181  45.0%     - 1360s
     0     0  641.94490    0 2810 1167.00000  641.94490  45.0%     - 1377s
     0     0  641.96478    0 2812 1167.00000  641.96478  45.0%     - 1382s
     0     0  641.97091    0 2816 1167.00000  641.97091  45.0%     - 1386s
     0     0  642.32481    0 2822 1167.00000  642.32481  45.0%     - 1413s
     0     0  642.35958    0 2832 1167.00000  642.35958  45.0%     - 1423s
     0     0  642.36609    0 2833 1167.00000  642.36609  45.0%     - 1427s
     0     0  642.75548    0 2834 1167.00000  642.75548  44.9%     - 1458s
     0     0  642.88982    0 2839 1167.00000  642.88982  44.9%     - 1474s
     0     0  642.91204    0 2850 1167.00000  642.91204  44.9%     - 1480s
     0     0  642.92519    0 2840 1167.00000  642.92519  44.9%     - 1486s
     0     0  643.13409    0 2830 1167.00000  643.13409  44.9%     - 1510s
     0     0  643.16495    0 2838 1167.00000  643.16495  44.9%     - 1521s
     0     0  643.16990    0 2834 1167.00000  643.16990  44.9%     - 1525s
     0     0  643.20400    0 2846 1167.00000  643.20400  44.9%     - 1540s
     0     0  643.20901    0 2844 1167.00000  643.20901  44.9%     - 1550s
     0     0  643.30219    0 2854 1167.00000  643.30219  44.9%     - 1568s
     0     0  643.30219    0 2854 1167.00000  643.30219  44.9%     - 1591s
     0     2  643.31258    0 2853 1167.00000  643.31258  44.9%     - 1801s
     1     3  644.48129    1 2849 1167.00000  643.31258  44.9%  4217 1848s
     2     4  652.50935    1 2584 1167.00000  644.48129  44.8% 11673 2054s
     3     5  645.19664    2 2828 1167.00000  644.48129  44.8%  8797 2088s
     4     6  659.55666    2 2517 1167.00000  645.19687  44.7% 16064 2477s
     5     7  645.22522    3 2817 1167.00000  645.20251  44.7% 12946 2482s
     6     8  645.28252    4 2818 1167.00000  645.20251  44.7% 10923 2491s
     7     9  645.30958    5 2822 1167.00000  645.20251  44.7%  9403 2495s
     8    10  645.35684    6 2810 1167.00000  645.20251  44.7%  8303 2502s
     9    11  645.43586    7 2818 1167.00000  645.20251  44.7%  7486 2512s
    10    12  645.48454    8 2806 1167.00000  645.20251  44.7%  6827 2520s
    11    13  670.72734    9 2527 1167.00000  645.20251  44.7%  8131 2719s
    12    14  645.69716    9 2806 1167.00000  645.20251  44.7%  7637 2739s
    13    15  680.73501   10 2420 1167.00000  645.20251  44.7%  8751 2952s
    14    16  646.26973   10 2822 1167.00000  645.20251  44.7%  8369 2989s
    15    17  646.47626   11 2825 1167.00000  645.20251  44.7%  7898 3002s
    16    18  693.31624   11 2391 1167.00000  645.20251  44.7%  9682 3383s
    17    19  646.69510   12 2814 1167.00000  645.20251  44.7%  9229 3400s
    18    20  674.51290   12 2554 1167.00000  645.20251  44.7%  9940 3600s

Cutting planes:
  Cover: 1
  MIR: 69
  StrongCG: 9
  Zero half: 39
  Mod-K: 11
  RLT: 1100

Explored 19 nodes (298990 simplex iterations) in 3600.34 seconds
Thread count was 1 (of 40 available processors)

Solution count 1: 1167 

Time limit reached
Best objective 1.167000000000e+03, best bound 6.460000000000e+02, gap 44.6444%

User-callback calls 10996, time in user-callback 0.03 sec
